(set-logic QF_SLIA)
(declare-fun var0 () String)
(assert (str.in_re var0 (re.++ ((_ re.loop 15 766) (re.++ (re.union (str.to_re "h") (re.union (str.to_re "t?") (re.union (str.to_re "HS`") (str.to_re "^N")))) (re.++ (re.union (str.to_re "H12") (re.union (str.to_re "yE?") (re.union (str.to_re "}'") (str.to_re "9c~")))) (re.++ (re.union (str.to_re "A}") (re.union (str.to_re "Y=V") (re.union (str.to_re "uB") (str.to_re "z^<")))) (re.union (str.to_re "aZ^") (re.union (str.to_re "M") (re.union (str.to_re "nLW") (str.to_re "Y~")))))))) (re.++ ((_ re.loop 13 687) (re.++ (re.union (str.to_re "^") (re.union (str.to_re "A.Y") (re.union (str.to_re "~3^") (str.to_re "P{")))) (re.++ (re.union (str.to_re "&5") (re.union (str.to_re "S") (re.union (str.to_re "[f9") (str.to_re "ho")))) (re.++ (re.union (str.to_re "5y$") (re.union (str.to_re "f2") (re.union (str.to_re "UX6") (str.to_re "g")))) (re.union (str.to_re "%_2") (re.union (str.to_re "'#") (re.union (str.to_re "R#?") (str.to_re "D5")))))))) (re.++ ((_ re.loop 0 358) (re.++ (re.union (str.to_re "f") (re.union (str.to_re "jC") (re.union (str.to_re "T") (str.to_re "\u0022x")))) (re.++ (re.union (str.to_re "_") (re.union (str.to_re "<r") (re.union (str.to_re "u") (str.to_re "]`")))) (re.++ (re.union (str.to_re "Bri") (re.union (str.to_re "]") (re.union (str.to_re "#k") (str.to_re "1&H")))) (re.union (str.to_re "PM") (re.union (str.to_re "qoi") (re.union (str.to_re "2K") (str.to_re "C")))))))) ((_ re.loop 4 552) (re.++ (re.union (str.to_re "Ct") (re.union (str.to_re "Nz") (re.union (str.to_re "f[") (str.to_re "$@")))) (re.++ (re.union (str.to_re "v#") (re.union (str.to_re "I*") (re.union (str.to_re "=<Z") (str.to_re "pO")))) (re.++ (re.union (str.to_re "3L") (re.union (str.to_re "A]H") (re.union (str.to_re "K") (str.to_re "rci")))) (re.union (str.to_re "`_b") (re.union (str.to_re "&") (re.union (str.to_re "w") (str.to_re "_;y")))))))))))))
(assert (not (str.in_re var0 (re.++ ((_ re.loop 6 469) (re.++ (re.union (str.to_re "A/=") (re.union (str.to_re "3") (re.union (str.to_re "au") (str.to_re "6")))) (re.++ (re.union (str.to_re "YTm") (re.union (str.to_re "R1") (re.union (str.to_re "g(") (str.to_re "2K6")))) (re.++ (re.union (str.to_re "q&") (re.union (str.to_re "j") (re.union (str.to_re "tR") (str.to_re "F")))) (re.union (str.to_re "Bn") (re.union (str.to_re "X") (re.union (str.to_re "Lq") (str.to_re "h5")))))))) (re.++ ((_ re.loop 18 979) (re.++ (re.union (str.to_re ":>~") (re.union (str.to_re "#") (re.union (str.to_re "\\4") (str.to_re "^vM")))) (re.++ (re.union (str.to_re "Sp") (re.union (str.to_re "\u0022]") (re.union (str.to_re "MTt") (str.to_re "37e")))) (re.++ (re.union (str.to_re "G") (re.union (str.to_re "gF") (re.union (str.to_re "/") (str.to_re "sPk")))) (re.union (str.to_re "K") (re.union (str.to_re "07") (re.union (str.to_re "k") (str.to_re "%")))))))) (re.++ ((_ re.loop 0 624) (re.++ (re.union (str.to_re "v") (re.union (str.to_re "E") (re.union (str.to_re "9{5") (str.to_re "M;")))) (re.++ (re.union (str.to_re "gW") (re.union (str.to_re "6") (re.union (str.to_re "L9:") (str.to_re "R")))) (re.++ (re.union (str.to_re "\u0022r") (re.union (str.to_re "JZw") (re.union (str.to_re "a(") (str.to_re "\\B")))) (re.union (str.to_re "4*F") (re.union (str.to_re ";") (re.union (str.to_re "$") (str.to_re ":(")))))))) ((_ re.loop 7 492) (re.++ (re.union (str.to_re "y9") (re.union (str.to_re "[N") (re.union (str.to_re "q<") (str.to_re "U8")))) (re.++ (re.union (str.to_re "8") (re.union (str.to_re "m#s") (re.union (str.to_re "e)'") (str.to_re "^")))) (re.++ (re.union (str.to_re "5M") (re.union (str.to_re "}y") (re.union (str.to_re "cA") (str.to_re "{")))) (re.union (str.to_re "8&D") (re.union (str.to_re "HEV") (re.union (str.to_re "qe;") (str.to_re "V"))))))))))))))
(assert (not (str.in_re var0 (re.++ (re.* re.allchar) (re.++ (re.union (str.to_re "<") (re.union (str.to_re ">") (re.union (str.to_re "'") (re.union (str.to_re "\u0022") (str.to_re "&"))))) (re.* re.allchar))))))
(assert (<= 50 (str.len var0)))
(check-sat)
(get-model)
